set Units:= G1 G2 G3;

param Data :=
           a 	   b  	   c 	   Pmin    Pmax  
G1         200     8.3     0.0040  200     600
G2         100     8.5     0.0025  150     300
G3         300     8.9     0.0050  200     400
;